c description: Random 2-CNF over 15 variables and 45 clauses
c generator: CNFgen (0.9.0)
c copyright: (C) 2012-2020 Massimo Lauria <massimo.lauria@uniroma1.it>
c url: https://massimolauria.net/cnfgen
c
p cnf 15 45
-2 -15 0
1 10 0
-5 -10 0
1 15 0
-14 -15 0
7 9 0
-4 -15 0
-6 -10 0
-5 -11 0
13 -14 0
-3 -13 0
6 -11 0
4 9 0
-2 -3 0
-6 -15 0
2 8 0
-11 -15 0
9 13 0
8 14 0
-5 -13 0
-3 13 0
-5 -9 0
-2 12 0
3 -12 0
7 8 0
1 4 0
2 -5 0
-1 6 0
6 -8 0
4 -9 0
3 5 0
-7 15 0
6 8 0
1 -8 0
-9 10 0
2 14 0
1 5 0
4 -15 0
-4 -9 0
10 12 0
-2 15 0
4 -12 0
-3 11 0
8 15 0
-3 -11 0